z1,z2,z3,nondominated
8,2,5,0
1,8,7,0
2,6,4,0
4,9,2,0
5,2,9,0
8,2,5,0
8,2,4,0
6,2,5,0
5,2,8,0
3,10,3,0
8,7,1,0
3,5,3,0
3,3,8,0
1,6,6,0
7,8,1,0
2,5,5,0
2,4,7,0
6,9,1,0
3,7,3,0
3,3,5,0
8,3,3,0
7,5,2,0
9,1,6,0
6,8,1,0
5,2,8,0
3,5,5,0
2,5,8,0
7,1,6,0
9,4,3,0
6,5,2,0
7,2,5,0
3,4,4,0
4,2,8,0
9,4,2,0
3,3,9,0
1,7,6,0
1,1,1,0
1,1,1,0
1,1,1,0
1,1,1,0
1,1,1,0
1,1,1,0
